GaAs
1.0
     0.00000000000000   2.8456267082698776   2.8456267082698776
     2.8456267082698776   0.00000000000000   2.8456267082698776
     2.8456267082698776   2.8456267082698776   0.00000000000000
   Ga   As
    1    1
Direct
   0.0000000000000   0.0000000000000   0.0000000000000
   0.2500000000000   0.2500000000000   0.2500000000000
