BN
   1.00000000000000
     1.2554039495896463   -2.1744233552088539    0.0000000000000000
     1.2554039495896463    2.1744233552088539    0.0000000000000000
     0.0000000000000000    0.0000000000000000   30.0000000000000000
   B    N
     1     1
Direct
  0.6666666666666667  0.3333333333333333  0.5000000000000000
  0.3333333333333333  0.6666666666666667  0.5000000000000000
