Zr2 C1 O2                               
   1.00000000000000     
     1.6478709168976540   -2.8541961523818480    0.0000000000000000
     1.6478709168976540    2.8541961523818480    0.0000000000000000
     0.0000000000000000    0.0000000000000000   30.0000000000000036
   Zr   C    O 
     2     1     2
Direct
  0.3333333333333333  0.6666666666666667  0.4534874846244840
  0.6666666666666667  0.3333333333333333  0.5465125153755160
  0.0000000000000000  0.0000000000000000  0.5000000000000000
  0.3333333333333333  0.6666666666666667  0.5771660905144927
  0.6666666666666667  0.3333333333333333  0.4228339094855067
 
  0.00000000E+00  0.00000000E+00  0.00000000E+00
  0.00000000E+00  0.00000000E+00  0.00000000E+00
  0.00000000E+00  0.00000000E+00  0.00000000E+00
  0.00000000E+00  0.00000000E+00  0.00000000E+00
  0.00000000E+00  0.00000000E+00  0.00000000E+00
